Translating instance to solver...

Set parameter TimeLimit to value 28800
Gurobi Optimizer version 11.0.2 build v11.0.2rc0 (linux64 - "Ubuntu 22.04.4 LTS")

CPU model: Intel(R) Xeon(R) Gold 5120 CPU @ 2.20GHz, instruction set [SSE2|AVX|AVX2|AVX512]
Thread count: 28 physical cores, 56 logical processors, using up to 28 threads

Academic license 2463511 - for non-commercial use only - registered to lu___@cefet-rj.br
Optimize a model with 40945 rows, 21383 columns and 96975 nonzeros
Model fingerprint: 0xabb3a5c1
Variable types: 1 continuous, 21382 integer (21340 binary)
Coefficient statistics:
  Matrix range     [1e+00, 1e+05]
  Objective range  [3e-01, 8e-01]
  Bounds range     [1e+00, 4e+01]
  RHS range        [1e+00, 4e+01]
Presolve removed 32334 rows and 17818 columns
Presolve time: 0.57s
Presolved: 8611 rows, 3565 columns, 25866 nonzeros
Variable types: 0 continuous, 3565 integer (3524 binary)

Root relaxation: objective 8.142820e-01, 774 iterations, 0.03 seconds (0.04 work units)

    Nodes    |    Current Node    |     Objective Bounds      |     Work
 Expl Unexpl |  Obj  Depth IntInf | Incumbent    BestBd   Gap | It/Node Time

     0     0    0.81428    0   59          -    0.81428      -     -    1s
H    0     0                       1.0617820    0.81428  23.3%     -    1s
     0     0     cutoff    0         1.06178    1.06178  0.00%     -    1s

Cutting planes:
  Gomory: 1
  Implied bound: 33
  MIR: 11
  Zero half: 8
  RLT: 6

Explored 1 nodes (6563 simplex iterations) in 1.67 seconds (1.26 work units)
Thread count was 28 (of 56 available processors)

Solution count 1: 1.06178 

Optimal solution found (tolerance 1.00e-04)
Best objective 1.061782000000e+00, best bound 1.061782000000e+00, gap 0.0000%

Solver Wallclock Time (for this epsilon): 1.669970989227295 s
Python wallclock Time (for this epsilon): 4.65094256401062 s


Total Elapsed Time (since program call): 103.28102254867554 s

Results:

I = 1.061782 mA
C = 51.0 points
C ~= 20.400000000000002 km^2

Minimum Epsilon for this instance = 9
Maximum Epsilon for this instance = 98

Current Epsilon = 36


Preprocessing Time (for this epsilon): 0.0067865848541259766 s


Updated solution vectors:
sol_I = [-0.611782,-0.9176730000000001,-1.061782,-1.061782]
sol_C = [11.0,19.0,51.0,51.0]
sol_eps = [9,18,27,36]
sol_gap = [0.0,0.0,0.0,0.0]
